webassembly/ejemplos_dzn/folder5_json_59.dzn
TERM = { '.', 'in_1', 'local_1', 'in_2', 's(1)', 's(0)', 'in_0'};
null = '.';
s = 5;
n = 8;
ndeps = 2;
max_registers_sz = 4;
NR = 1;
registers = [|'local_1', 'in_0'|];
dependencies = [|'i32.load16_s_1', 'call[function_index(0)]_2', |'call[function_index(0)]_2', 'i32.store_4'|];
GET_ENUM = { GET1, GET2, GET3, GET4, GET5};
SET_ENUM = { SET1, SET2, SET3, SET4, SET5};
TEE_ENUM = { TEE1, TEE2, TEE3, TEE4, TEE5};
N = 4;
OP = { 'call[function_index(0)]_2', 'i32.load16_s_1', 'i32.const_0', 'i32.store_4' };
in_ops = [2, 1, 0, 2 ];
out_ops = [0, 1, 1, 0 ];
in1 = ['s(0)', 'in_0', '.', 's(1)' ];
in2 = ['in_1', '.', '.', 'in_2' ];
in3 = ['.', '.', '.', '.' ];
out1 = ['.', 's(0)', 's(1)', '.' ];
out2 = ['.', '.', '.', '.' ];
out3 = ['.', '.', '.', '.' ];
comm = [false, false, false, false ];
gas = [1, 1, 1, 1 ];
sz = [1, 1, 1, 1 ];
stor = [true, false, false, true ];
lb = [ 1, 1, 1, 1 ];
ub = [ 5, 5, 5, 5 ];
startstack = [ 'in_0', 'in_1', 'in_2', null, null, null, null, null ];
endstack = [ null, null, null, null, null, null, null, null ];
